p tw 120 2761 8 
1 9 
1 11 
2 7 
2 10 
2 12 
3 4 
3 5 
3 8 
3 10 
4 6 
4 7 
4 9 
5 6 
5 9 
5 10 
6 7 
6 8 
7 8 
7 9 
7 10 
8 9 
8 10 
9 10 
11 18 
11 19 
12 17 
12 20 
13 14 
13 18 
13 20 
13 23 
14 17 
14 19 
14 24 
15 16 
15 19 
15 20 
15 25 
16 17 
16 18 
16 26 
17 18 
17 19 
17 20 
18 19 
18 20 
19 20 
21 28 
21 29 
21 31 
22 27 
22 30 
22 32 
23 24 
23 28 
23 30 
24 27 
24 29 
25 26 
25 29 
25 30 
26 27 
26 28 
27 28 
27 29 
27 30 
28 29 
28 30 
29 30 
31 38 
31 39 
32 37 
32 40 
33 34 
33 38 
33 40 
33 43 
34 37 
34 39 
34 44 
35 36 
35 39 
35 40 
35 45 
36 37 
36 38 
36 46 
37 38 
37 39 
37 40 
38 39 
38 40 
39 40 
41 48 
41 49 
41 51 
42 47 
42 50 
42 52 
43 44 
43 48 
43 50 
44 47 
44 49 
45 46 
45 49 
45 50 
46 47 
46 48 
47 48 
47 49 
47 50 
48 49 
48 50 
49 50 
51 58 
51 59 
52 57 
52 60 
53 54 
53 58 
53 60 
53 63 
54 57 
54 59 
54 64 
55 56 
55 59 
55 60 
55 65 
56 57 
56 58 
56 66 
57 58 
57 59 
57 60 
58 59 
58 60 
59 60 
61 68 
61 69 
61 71 
62 67 
62 70 
62 72 
63 64 
63 68 
63 70 
64 67 
64 69 
65 66 
65 69 
65 70 
66 67 
66 68 
67 68 
67 69 
67 70 
68 69 
68 70 
69 70 
71 78 
71 79 
72 77 
72 80 
73 74 
73 78 
73 80 
73 83 
74 77 
74 79 
74 84 
75 76 
75 79 
75 80 
75 85 
76 77 
76 78 
76 86 
77 78 
77 79 
77 80 
78 79 
78 80 
79 80 
81 88 
81 89 
81 91 
82 87 
82 90 
82 92 
83 84 
83 88 
83 90 
84 87 
84 89 
85 86 
85 89 
85 90 
86 87 
86 88 
87 88 
87 89 
87 90 
88 89 
88 90 
89 90 
91 98 
91 99 
92 97 
92 100 
93 94 
93 98 
93 100 
93 103 
94 97 
94 99 
94 104 
95 96 
95 99 
95 100 
95 105 
96 97 
96 98 
96 106 
97 98 
97 99 
97 100 
98 99 
98 100 
99 100 
101 108 
101 109 
101 111 
102 107 
102 110 
102 112 
103 104 
103 108 
103 110 
104 107 
104 109 
105 106 
105 109 
105 110 
106 107 
106 108 
107 108 
107 109 
107 110 
108 109 
108 110 
109 110 
111 118 
111 119 
112 117 
112 120 
113 114 
113 115 
113 118 
113 120 
114 116 
114 117 
114 119 
115 116 
115 119 
115 120 
116 117 
116 118 
117 118 
117 119 
117 120 
118 119 
118 120 
119 120 
